20190726 100 0 0 0
20180727 50 3000 0 0
20160812 20 0 0 0
20150819 20 0 0 0
20140718 20 0 0 0
20130626 10 0 0 0
20120814 30 0 0 0
20110819 50 0 0 0
20100824 50 0 0 0
20090720 30 0 0 0
20080801 30 0 0 0
20070813 20 0 0 0
20060620 50 0 0 0
20060606 0 3500 0 0
20040803 40 0 0 0
20030716 60 0 0 0
20020710 80 0 0 0
20010703 80 0 0 0
20000807 40 0 0 0
19990809 20 0 0 0
19980817 70 0 0 0
